15 3 
3376	3376	3376	
460	711	837	
337	18	29	
979	700	1228	
416	406	559	
531	424	424	
947	214	254	
717	5	8	
651	581	1093	
641	115	187	
988	28	43	
491	915	1631	
619	804	1235	
876	922	1728	
374	207	234	
554	703	910	
